90
1582
23
37
71
33
90
88
67
54
30
26
47
4
17
43
17
27
92
63
21
41
31
91
96
22
0 1
0 3
0 5
0 8
0 13
0 16
0 17
0 20
0 21
0 23
0 33
0 34
0 35
0 38
0 39
0 41
0 42
0 45
0 61
0 65
0 67
0 68
0 71
0 72
0 73
0 75
0 77
0 79
0 80
0 81
0 82
0 84
0 88
0 89
1 5
1 11
1 14
1 17
1 18
1 21
1 22
1 24
1 26
1 28
1 32
1 33
1 34
1 35
1 38
1 39
1 41
1 43
1 45
1 46
1 49
1 50
1 51
1 55
1 58
1 62
1 72
1 74
1 77
1 87
1 88
1 89
2 5
2 6
2 8
2 9
2 10
2 11
2 15
2 18
2 19
2 20
2 21
2 24
2 30
2 34
2 37
2 41
2 46
2 48
2 56
2 58
2 59
2 62
2 67
2 68
2 71
2 72
2 77
2 82
2 87
3 4
3 9
3 10
3 11
3 12
3 15
3 17
3 18
3 21
3 22
3 28
3 29
3 30
3 32
3 34
3 36
3 37
3 38
3 40
3 42
3 44
3 45
3 47
3 48
3 50
3 52
3 55
3 60
3 61
3 63
3 65
3 67
3 69
3 71
3 74
3 76
3 77
3 78
3 79
3 82
3 86
3 89
4 5
4 7
4 8
4 9
4 12
4 13
4 15
4 17
4 19
4 21
4 22
4 24
4 26
4 28
4 32
4 34
4 36
4 43
4 48
4 51
4 53
4 58
4 59
4 60
4 66
4 67
4 69
4 72
4 73
4 79
4 82
4 83
4 85
4 88
5 8
5 15
5 17
5 19
5 21
5 25
5 26
5 27
5 28
5 29
5 32
5 35
5 36
5 37
5 39
5 41
5 42
5 48
5 49
5 56
5 57
5 59
5 60
5 64
5 65
5 68
5 69
5 71
5 72
5 73
5 74
5 75
5 76
5 77
5 78
5 82
5 83
5 84
5 87
5 89
6 8
6 10
6 13
6 16
6 19
6 20
6 28
6 31
6 37
6 38
6 40
6 43
6 44
6 47
6 51
6 56
6 62
6 66
6 67
6 68
6 70
6 75
6 76
6 77
6 78
6 80
6 83
7 9
7 10
7 11
7 15
7 16
7 17
7 18
7 22
7 23
7 24
7 25
7 29
7 30
7 32
7 33
7 34
7 36
7 37
7 38
7 41
7 43
7 44
7 45
7 52
7 56
7 58
7 60
7 61
7 65
7 67
7 69
7 70
7 75
7 84
8 9
8 14
8 15
8 16
8 19
8 27
8 30
8 37
8 39
8 42
8 43
8 49
8 50
8 52
8 53
8 54
8 55
8 60
8 65
8 66
8 67
8 72
8 73
8 74
8 75
8 77
8 78
8 79
8 81
8 86
8 89
9 18
9 19
9 21
9 22
9 25
9 31
9 32
9 35
9 38
9 40
9 41
9 42
9 48
9 49
9 51
9 53
9 54
9 55
9 57
9 60
9 61
9 63
9 64
9 65
9 69
9 71
9 73
9 75
9 79
9 80
9 81
9 82
9 84
9 89
10 16
10 19
10 21
10 22
10 23
10 33
10 35
10 41
10 42
10 43
10 47
10 48
10 49
10 57
10 63
10 64
10 75
10 77
10 79
10 80
10 82
10 83
10 84
10 88
11 12
11 14
11 15
11 16
11 18
11 24
11 27
11 28
11 30
11 35
11 38
11 40
11 43
11 45
11 48
11 49
11 50
11 55
11 59
11 60
11 61
11 64
11 67
11 68
11 70
11 76
11 78
11 81
11 82
11 87
11 89
12 13
12 18
12 20
12 22
12 26
12 29
12 32
12 34
12 35
12 38
12 39
12 42
12 43
12 45
12 51
12 53
12 54
12 56
12 61
12 62
12 64
12 66
12 73
12 74
12 76
12 77
12 78
12 81
12 82
12 83
12 84
12 86
12 87
13 16
13 18
13 20
13 21
13 22
13 23
13 32
13 33
13 38
13 41
13 42
13 44
13 45
13 46
13 47
13 48
13 50
13 51
13 53
13 61
13 63
13 66
13 69
13 71
13 73
13 74
13 76
13 78
13 79
14 17
14 18
14 20
14 25
14 29
14 30
14 34
14 37
14 39
14 41
14 43
14 49
14 50
14 51
14 56
14 58
14 60
14 62
14 63
14 67
14 70
14 74
14 83
14 86
14 87
15 17
15 20
15 27
15 36
15 37
15 38
15 40
15 45
15 51
15 53
15 54
15 55
15 57
15 59
15 62
15 63
15 64
15 66
15 68
15 70
15 71
15 74
15 76
15 79
15 80
15 86
15 88
15 89
16 17
16 18
16 21
16 22
16 25
16 27
16 28
16 34
16 36
16 40
16 41
16 42
16 44
16 46
16 47
16 49
16 51
16 52
16 56
16 57
16 59
16 63
16 64
16 65
16 66
16 68
16 73
16 74
16 80
16 84
16 85
16 87
16 88
17 19
17 21
17 23
17 25
17 27
17 29
17 31
17 35
17 36
17 37
17 38
17 41
17 42
17 45
17 47
17 48
17 49
17 55
17 56
17 57
17 59
17 60
17 61
17 65
17 71
17 72
17 79
17 80
17 82
17 83
17 85
17 86
17 88
18 21
18 22
18 26
18 28
18 32
18 34
18 38
18 42
18 43
18 44
18 47
18 50
18 55
18 56
18 58
18 59
18 60
18 61
18 62
18 64
18 67
18 70
18 72
18 75
18 77
18 83
18 85
18 86
18 88
19 20
19 28
19 30
19 31
19 34
19 37
19 38
19 42
19 44
19 50
19 52
19 59
19 61
19 62
19 63
19 64
19 67
19 69
19 70
19 73
19 74
19 75
19 77
19 79
19 80
19 85
19 86
19 88
20 21
20 23
20 25
20 27
20 28
20 38
20 40
20 41
20 44
20 47
20 50
20 52
20 53
20 54
20 56
20 57
20 59
20 60
20 61
20 66
20 67
20 68
20 69
20 70
20 71
20 74
20 75
20 80
20 81
20 82
20 87
21 24
21 26
21 27
21 33
21 34
21 35
21 36
21 37
21 41
21 42
21 43
21 57
21 58
21 59
21 60
21 65
21 69
21 71
21 75
21 82
21 83
21 89
22 23
22 26
22 30
22 32
22 37
22 40
22 43
22 48
22 52
22 54
22 58
22 59
22 61
22 62
22 68
22 69
22 72
22 73
22 75
22 76
22 78
22 81
22 84
22 85
22 87
22 88
23 24
23 25
23 27
23 30
23 31
23 32
23 33
23 44
23 48
23 51
23 52
23 53
23 54
23 60
23 62
23 64
23 67
23 73
23 75
23 76
23 80
23 82
23 83
23 88
23 89
24 25
24 30
24 31
24 32
24 35
24 37
24 39
24 43
24 44
24 45
24 48
24 49
24 51
24 58
24 60
24 66
24 67
24 68
24 70
24 71
24 74
24 75
24 80
24 82
24 86
24 88
24 89
25 31
25 35
25 37
25 38
25 44
25 45
25 47
25 54
25 55
25 60
25 62
25 63
25 70
25 71
25 75
25 76
25 79
25 83
25 84
25 85
25 86
25 87
25 88
25 89
26 28
26 30
26 36
26 38
26 39
26 40
26 43
26 45
26 50
26 52
26 54
26 55
26 56
26 57
26 64
26 66
26 68
26 69
26 71
26 72
26 74
26 78
26 81
26 85
27 31
27 33
27 38
27 39
27 40
27 42
27 43
27 44
27 47
27 49
27 54
27 55
27 58
27 60
27 61
27 71
27 77
27 80
27 81
27 85
27 86
27 87
27 88
27 89
28 29
28 32
28 34
28 35
28 36
28 37
28 39
28 41
28 45
28 48
28 51
28 58
28 60
28 62
28 67
28 72
28 73
28 78
28 82
28 84
28 85
28 88
29 30
29 31
29 33
29 36
29 37
29 38
29 39
29 40
29 42
29 43
29 44
29 49
29 50
29 52
29 55
29 59
29 65
29 66
29 72
29 78
29 79
29 82
29 85
29 86
29 88
30 32
30 35
30 36
30 40
30 42
30 45
30 47
30 48
30 50
30 53
30 54
30 56
30 57
30 58
30 66
30 67
30 69
30 72
30 73
30 74
30 76
30 77
30 84
30 86
31 34
31 39
31 42
31 43
31 50
31 52
31 53
31 55
31 56
31 57
31 58
31 61
31 62
31 63
31 64
31 65
31 66
31 69
31 72
31 73
31 74
31 78
31 79
31 81
31 83
31 84
31 85
31 86
31 87
31 88
31 89
32 37
32 39
32 42
32 44
32 52
32 54
32 57
32 58
32 59
32 61
32 65
32 67
32 68
32 70
32 75
32 76
32 78
32 79
32 81
32 89
33 34
33 41
33 42
33 47
33 50
33 51
33 53
33 58
33 60
33 61
33 62
33 63
33 65
33 68
33 69
33 73
33 75
33 84
33 85
33 88
34 36
34 42
34 43
34 46
34 52
34 54
34 55
34 58
34 62
34 66
34 67
34 69
34 70
34 72
34 80
34 81
34 83
34 85
34 89
35 36
35 40
35 41
35 42
35 45
35 46
35 49
35 50
35 51
35 56
35 57
35 59
35 61
35 68
35 69
35 70
35 72
35 74
35 76
35 80
35 83
35 85
36 37
36 41
36 43
36 44
36 45
36 48
36 52
36 56
36 57
36 58
36 63
36 65
36 69
36 71
36 73
36 74
36 75
36 77
36 78
36 79
36 80
36 82
36 85
37 39
37 41
37 43
37 45
37 46
37 52
37 53
37 56
37 58
37 59
37 60
37 61
37 62
37 63
37 65
37 68
37 69
37 80
37 81
37 82
37 89
38 42
38 46
38 49
38 50
38 52
38 55
38 56
38 57
38 58
38 62
38 64
38 66
38 71
38 74
38 76
38 78
38 79
38 81
38 82
38 84
38 86
38 88
39 41
39 42
39 44
39 45
39 46
39 47
39 48
39 52
39 53
39 56
39 58
39 62
39 66
39 69
39 70
39 72
39 73
39 75
39 81
39 84
39 85
40 43
40 44
40 47
40 49
40 51
40 52
40 55
40 56
40 58
40 63
40 66
40 67
40 68
40 74
40 76
40 77
40 79
40 83
40 87
40 88
41 43
41 47
41 48
41 50
41 53
41 54
41 56
41 57
41 58
41 62
41 64
41 68
41 71
41 72
41 73
41 74
41 76
41 77
41 78
41 79
41 80
41 81
41 82
41 83
41 85
41 87
41 89
42 45
42 46
42 47
42 54
42 59
42 72
42 73
42 75
42 78
42 81
42 82
42 84
42 85
42 88
43 46
43 47
43 49
43 52
43 54
43 56
43 62
43 65
43 70
43 71
43 73
43 75
43 76
43 77
43 78
43 79
43 82
43 86
43 88
44 45
44 48
44 51
44 52
44 55
44 58
44 63
44 65
44 66
44 68
44 70
44 74
44 77
44 79
44 81
44 84
44 85
44 86
44 87
44 88
44 89
45 48
45 49
45 52
45 55
45 59
45 61
45 66
45 68
45 70
45 72
45 73
45 77
45 78
45 79
45 80
45 81
45 82
45 83
45 89
46 47
46 48
46 50
46 52
46 53
46 58
46 59
46 60
46 67
46 68
46 69
46 72
46 76
46 77
46 79
46 83
46 87
46 88
47 51
47 53
47 54
47 55
47 56
47 57
47 58
47 63
47 65
47 70
47 71
47 73
47 75
47 79
47 84
47 89
48 49
48 59
48 63
48 65
48 67
48 68
48 73
48 75
48 77
48 79
48 83
48 84
48 85
48 87
49 51
49 56
49 57
49 58
49 59
49 61
49 62
49 63
49 65
49 69
49 70
49 73
49 74
49 78
49 80
49 82
49 86
50 55
50 57
50 59
50 60
50 61
50 62
50 63
50 67
50 70
50 73
50 74
50 75
50 78
50 83
50 84
50 85
50 86
51 54
51 56
51 57
51 61
51 62
51 65
51 66
51 69
51 71
51 75
51 77
51 78
51 82
51 84
51 88
52 54
52 55
52 57
52 62
52 63
52 65
52 67
52 68
52 69
52 70
52 72
52 73
52 75
52 84
52 88
53 57
53 63
53 64
53 67
53 68
53 70
53 73
53 74
53 75
53 77
53 84
53 86
53 89
54 55
54 64
54 73
54 76
54 80
54 81
54 82
54 84
54 88
54 89
55 57
55 59
55 60
55 61
55 63
55 65
55 67
55 68
55 72
55 74
55 76
55 80
55 81
55 86
56 59
56 62
56 63
56 66
56 67
56 68
56 69
56 72
56 74
56 75
56 83
56 85
56 87
57 58
57 60
57 62
57 68
57 73
57 76
57 78
57 83
57 87
57 88
58 61
58 64
58 70
58 75
58 77
58 81
58 85
58 86
58 89
59 64
59 65
59 67
59 68
59 70
59 78
59 81
59 83
59 84
59 85
59 88
60 64
60 67
60 76
60 78
60 84
61 62
61 66
61 68
61 70
61 73
61 76
61 78
61 79
61 83
61 85
61 86
61 87
62 63
62 65
62 66
62 67
62 68
62 69
62 70
62 71
62 74
62 75
62 77
62 78
62 79
62 81
62 84
62 86
62 87
63 66
63 73
63 75
63 78
63 79
63 81
63 82
63 85
63 86
63 89
64 68
64 70
64 71
64 75
64 78
64 80
64 84
64 87
64 88
65 69
65 71
65 73
65 75
65 78
65 86
66 67
66 70
66 74
66 75
66 78
66 81
66 83
66 85
66 86
66 89
67 68
67 69
67 73
67 74
67 77
67 79
67 84
67 86
68 69
68 70
68 71
68 74
68 75
68 77
68 80
68 82
68 87
69 74
69 79
69 82
69 87
69 88
70 71
70 74
70 76
70 77
70 79
70 82
70 86
70 88
71 72
71 78
71 84
71 87
72 79
72 80
72 82
72 88
72 89
73 76
73 77
73 78
73 80
73 83
73 85
73 86
73 87
73 89
74 75
74 76
74 77
74 79
74 83
74 84
74 85
74 89
75 79
75 80
75 83
75 84
75 87
75 88
75 89
76 78
76 80
76 81
76 82
76 84
76 88
77 81
77 83
77 85
77 87
77 88
78 81
78 86
78 87
79 82
79 84
79 86
79 87
79 89
80 83
80 86
80 87
80 89
81 89
82 84
82 89
83 88
83 89
84 87
84 88
84 89
86 87
86 88
87 88
87 89
70 40 55 25
69 35 63 27
36 7 59 38
56 72 48 2
52 23 77 50
28 49 15 21
37 42 18 20
60 14 33 4
57 80 26 62
22 45 6 34
85 71 73 51
83 32 31 12
29 78 86 53
8 46 61 13
9 39 41 47
10 89 17 65
1 66 76 19
84 5 82 79
87 68 0 58
43 30 67 24
16 74 75 88
54 81 44 64
3 11
